Minimize
	value: tt

Subject to
tt + 1000 s_1_1 > 0.0
tt - t_1_1 - 1000.241578 s_1_1  + 0.241578 s_1_7  > -999.702889
tt + 1000 s_2_1 > 0.0
tt - t_2_1 - 1000.240252 s_2_1  + 0.240252 s_2_7  > -996.008308
tt + 1000 s_1_2 > 0.0
tt - t_1_2 - 1000.241578 s_1_2  + 0.241578 s_1_8  > -999.667400
tt + 1000 s_2_2 > 0.0
tt - t_2_2 - 1000.240252 s_2_2  + 0.240252 s_2_8  > -995.752411
tt + 1000 s_1_3 > 0.0
tt - t_1_3 - 1000.241578 s_1_3  + 0.241578 s_1_8  > -999.543367
tt + 1000 s_2_3 > 0.0
tt - t_2_3 - 1000.240252 s_2_3  + 0.240252 s_2_8  > -994.231214
tt + 1000 s_1_4 > 0.0
tt - t_1_4 - 1000.483156 s_1_4  + 0.241578 s_1_8  + 0.241578 s_1_3  > -999.758100
tt + 1000 s_2_4 > 0.0
tt - t_2_4 - 1000.480505 s_2_4  + 0.240252 s_2_8  + 0.240252 s_2_3  > -996.187283
tt + 1000 s_1_5 > 0.0
tt - t_1_5 - 1000.483156 s_1_5  + 0.241578 s_1_7  + 0.241578 s_1_8  > -999.789877
tt + 1000 s_2_5 > 0.0
tt - t_2_5 - 1000.480505 s_2_5  + 0.240252 s_2_7  + 0.240252 s_2_8  > -996.906166
tt + 1000 s_1_6 > 0.0
tt - t_1_6 - 1001.207889 s_1_6  + 0.241578 s_1_4  + 0.241578 s_1_5  + 0.241578 s_1_3  + 0.241578 s_1_1  + 0.241578 s_1_2  > -999.978100
tt + 1000 s_2_6 > 0.0
tt - t_2_6 - 1001.201261 s_2_6  + 0.240252 s_2_4  + 0.240252 s_2_5  + 0.240252 s_2_3  + 0.240252 s_2_1  + 0.240252 s_2_2  > -998.772250
tt + 1000 s_1_7 > 0.0
tt - t_1_7 - 1000.000000 s_1_7  > -999.521200
tt + 1000 s_2_7 > 0.0
tt - t_2_7 - 1000.000000 s_2_7  > -997.961800
tt + 1000 s_1_8 > 0.0
tt - t_1_8 - 1000.000000 s_1_8  > -999.513922
tt + 1000 s_2_8 > 0.0
tt - t_2_8 - 1000.000000 s_2_8  > -997.299778
s_1_1 + s_2_1 = 1
s_1_2 + s_2_2 = 1
s_1_3 + s_2_3 = 1
s_1_4 + s_2_4 = 1
s_1_5 + s_2_5 = 1
s_1_6 + s_2_6 = 1
s_1_7 + s_2_7 = 1
s_1_8 + s_2_8 = 1
s_1_1 + s_1_2 + 1000 r_1_1_2 >= 2
- s_1_1 - s_1_2 - 1000 r_1_1_2 >= -1001
t_1_1 - t_1_2 - 1000.000000 u_1_1_2 - 0.241578 s_1_2  + 0.241578 s_1_8  + 2000.000000 r_1_1_2 > -999.667400
s_2_1 + s_2_2 + 1000 r_2_1_2 >= 2
- s_2_1 - s_2_2 - 1000 r_2_1_2 >= -1001
t_2_1 - t_2_2 - 1000.000000 u_2_1_2 - 0.240252 s_2_2  + 0.240252 s_2_8  + 2000.000000 r_2_1_2 > -995.752411
s_1_1 + s_1_3 + 1000 r_1_1_3 >= 2
- s_1_1 - s_1_3 - 1000 r_1_1_3 >= -1001
t_1_1 - t_1_3 - 1000.000000 u_1_1_3 - 0.241578 s_1_3  + 0.241578 s_1_8  + 2000.000000 r_1_1_3 > -999.543367
s_2_1 + s_2_3 + 1000 r_2_1_3 >= 2
- s_2_1 - s_2_3 - 1000 r_2_1_3 >= -1001
t_2_1 - t_2_3 - 1000.000000 u_2_1_3 - 0.240252 s_2_3  + 0.240252 s_2_8  + 2000.000000 r_2_1_3 > -994.231214
s_1_1 + s_1_4 + 1000 r_1_1_4 >= 2
- s_1_1 - s_1_4 - 1000 r_1_1_4 >= -1001
t_1_1 - t_1_4 - 1000.000000 u_1_1_4 - 0.483156 s_1_4  + 0.241578 s_1_8  + 0.241578 s_1_3  + 2000.000000 r_1_1_4 > -999.758100
s_2_1 + s_2_4 + 1000 r_2_1_4 >= 2
- s_2_1 - s_2_4 - 1000 r_2_1_4 >= -1001
t_2_1 - t_2_4 - 1000.000000 u_2_1_4 - 0.480505 s_2_4  + 0.240252 s_2_8  + 0.240252 s_2_3  + 2000.000000 r_2_1_4 > -996.187283
s_1_1 + s_1_5 + 1000 r_1_1_5 >= 2
- s_1_1 - s_1_5 - 1000 r_1_1_5 >= -1001
t_1_1 - t_1_5 - 1000.000000 u_1_1_5 - 0.483156 s_1_5  + 0.241578 s_1_7  + 0.241578 s_1_8  + 2000.000000 r_1_1_5 > -999.789877
s_2_1 + s_2_5 + 1000 r_2_1_5 >= 2
- s_2_1 - s_2_5 - 1000 r_2_1_5 >= -1001
t_2_1 - t_2_5 - 1000.000000 u_2_1_5 - 0.480505 s_2_5  + 0.240252 s_2_7  + 0.240252 s_2_8  + 2000.000000 r_2_1_5 > -996.906166
t_1_6 - t_1_1 - 1000.241578 s_1_1  + 0.241578 s_1_7  > -999.702889
t_1_6 - t_2_1 - 1000.240252 s_2_1  + 0.240252 s_2_7  > -996.008308
t_2_6 - t_1_1 - 1000.241578 s_1_1  + 0.241578 s_1_7  > -999.702889
t_2_6 - t_2_1 - 1000.240252 s_2_1  + 0.240252 s_2_7  > -996.008308
t_1_1 - t_1_7 - 1000.000000 s_1_7  > -999.521200
t_1_1 - t_2_7 - 1000.000000 s_2_7  > -997.961800
t_2_1 - t_1_7 - 1000.000000 s_1_7  > -999.521200
t_2_1 - t_2_7 - 1000.000000 s_2_7  > -997.961800
s_1_1 + s_1_8 + 1000 r_1_1_8 >= 2
- s_1_1 - s_1_8 - 1000 r_1_1_8 >= -1001
t_1_1 - t_1_8 - 1000.000000 u_1_1_8 - 0.000000 s_1_8  + 2000.000000 r_1_1_8 > -999.513922
s_2_1 + s_2_8 + 1000 r_2_1_8 >= 2
- s_2_1 - s_2_8 - 1000 r_2_1_8 >= -1001
t_2_1 - t_2_8 - 1000.000000 u_2_1_8 - 0.000000 s_2_8  + 2000.000000 r_2_1_8 > -997.299778
s_1_2 + s_1_1 + 1000 r_1_1_2 >= 2
- s_1_2 - s_1_1 - 1000 r_1_1_2 >= -1001
t_1_2 - t_1_1 + 1000.000000 u_1_1_2 - 0.241578 s_1_1  + 0.241578 s_1_7  + 2000.000000 r_1_1_2 > 0.297111
s_2_2 + s_2_1 + 1000 r_2_1_2 >= 2
- s_2_2 - s_2_1 - 1000 r_2_1_2 >= -1001
t_2_2 - t_2_1 + 1000.000000 u_2_1_2 - 0.240252 s_2_1  + 0.240252 s_2_7  + 2000.000000 r_2_1_2 > 3.991692
s_1_2 + s_1_3 + 1000 r_1_2_3 >= 2
- s_1_2 - s_1_3 - 1000 r_1_2_3 >= -1001
t_1_2 - t_1_3 - 1000.000000 u_1_2_3 - 0.241578 s_1_3  + 0.241578 s_1_8  + 2000.000000 r_1_2_3 > -999.543367
s_2_2 + s_2_3 + 1000 r_2_2_3 >= 2
- s_2_2 - s_2_3 - 1000 r_2_2_3 >= -1001
t_2_2 - t_2_3 - 1000.000000 u_2_2_3 - 0.240252 s_2_3  + 0.240252 s_2_8  + 2000.000000 r_2_2_3 > -994.231214
s_1_2 + s_1_4 + 1000 r_1_2_4 >= 2
- s_1_2 - s_1_4 - 1000 r_1_2_4 >= -1001
t_1_2 - t_1_4 - 1000.000000 u_1_2_4 - 0.483156 s_1_4  + 0.241578 s_1_8  + 0.241578 s_1_3  + 2000.000000 r_1_2_4 > -999.758100
s_2_2 + s_2_4 + 1000 r_2_2_4 >= 2
- s_2_2 - s_2_4 - 1000 r_2_2_4 >= -1001
t_2_2 - t_2_4 - 1000.000000 u_2_2_4 - 0.480505 s_2_4  + 0.240252 s_2_8  + 0.240252 s_2_3  + 2000.000000 r_2_2_4 > -996.187283
s_1_2 + s_1_5 + 1000 r_1_2_5 >= 2
- s_1_2 - s_1_5 - 1000 r_1_2_5 >= -1001
t_1_2 - t_1_5 - 1000.000000 u_1_2_5 - 0.483156 s_1_5  + 0.241578 s_1_7  + 0.241578 s_1_8  + 2000.000000 r_1_2_5 > -999.789877
s_2_2 + s_2_5 + 1000 r_2_2_5 >= 2
- s_2_2 - s_2_5 - 1000 r_2_2_5 >= -1001
t_2_2 - t_2_5 - 1000.000000 u_2_2_5 - 0.480505 s_2_5  + 0.240252 s_2_7  + 0.240252 s_2_8  + 2000.000000 r_2_2_5 > -996.906166
t_1_6 - t_1_2 - 1000.241578 s_1_2  + 0.241578 s_1_8  > -999.667400
t_1_6 - t_2_2 - 1000.240252 s_2_2  + 0.240252 s_2_8  > -995.752411
t_2_6 - t_1_2 - 1000.241578 s_1_2  + 0.241578 s_1_8  > -999.667400
t_2_6 - t_2_2 - 1000.240252 s_2_2  + 0.240252 s_2_8  > -995.752411
s_1_2 + s_1_7 + 1000 r_1_2_7 >= 2
- s_1_2 - s_1_7 - 1000 r_1_2_7 >= -1001
t_1_2 - t_1_7 - 1000.000000 u_1_2_7 - 0.000000 s_1_7  + 2000.000000 r_1_2_7 > -999.521200
s_2_2 + s_2_7 + 1000 r_2_2_7 >= 2
- s_2_2 - s_2_7 - 1000 r_2_2_7 >= -1001
t_2_2 - t_2_7 - 1000.000000 u_2_2_7 - 0.000000 s_2_7  + 2000.000000 r_2_2_7 > -997.961800
t_1_2 - t_1_8 - 1000.000000 s_1_8  > -999.513922
t_1_2 - t_2_8 - 1000.000000 s_2_8  > -997.299778
t_2_2 - t_1_8 - 1000.000000 s_1_8  > -999.513922
t_2_2 - t_2_8 - 1000.000000 s_2_8  > -997.299778
s_1_3 + s_1_1 + 1000 r_1_1_3 >= 2
- s_1_3 - s_1_1 - 1000 r_1_1_3 >= -1001
t_1_3 - t_1_1 + 1000.000000 u_1_1_3 - 0.241578 s_1_1  + 0.241578 s_1_7  + 2000.000000 r_1_1_3 > 0.297111
s_2_3 + s_2_1 + 1000 r_2_1_3 >= 2
- s_2_3 - s_2_1 - 1000 r_2_1_3 >= -1001
t_2_3 - t_2_1 + 1000.000000 u_2_1_3 - 0.240252 s_2_1  + 0.240252 s_2_7  + 2000.000000 r_2_1_3 > 3.991692
s_1_3 + s_1_2 + 1000 r_1_2_3 >= 2
- s_1_3 - s_1_2 - 1000 r_1_2_3 >= -1001
t_1_3 - t_1_2 + 1000.000000 u_1_2_3 - 0.241578 s_1_2  + 0.241578 s_1_8  + 2000.000000 r_1_2_3 > 0.332600
s_2_3 + s_2_2 + 1000 r_2_2_3 >= 2
- s_2_3 - s_2_2 - 1000 r_2_2_3 >= -1001
t_2_3 - t_2_2 + 1000.000000 u_2_2_3 - 0.240252 s_2_2  + 0.240252 s_2_8  + 2000.000000 r_2_2_3 > 4.247589
t_1_4 - t_1_3 - 1000.241578 s_1_3  + 0.241578 s_1_8  > -999.543367
t_1_4 - t_2_3 - 1000.240252 s_2_3  + 0.240252 s_2_8  > -994.231214
t_2_4 - t_1_3 - 1000.241578 s_1_3  + 0.241578 s_1_8  > -999.543367
t_2_4 - t_2_3 - 1000.240252 s_2_3  + 0.240252 s_2_8  > -994.231214
s_1_3 + s_1_5 + 1000 r_1_3_5 >= 2
- s_1_3 - s_1_5 - 1000 r_1_3_5 >= -1001
t_1_3 - t_1_5 - 1000.000000 u_1_3_5 - 0.483156 s_1_5  + 0.241578 s_1_7  + 0.241578 s_1_8  + 2000.000000 r_1_3_5 > -999.789877
s_2_3 + s_2_5 + 1000 r_2_3_5 >= 2
- s_2_3 - s_2_5 - 1000 r_2_3_5 >= -1001
t_2_3 - t_2_5 - 1000.000000 u_2_3_5 - 0.480505 s_2_5  + 0.240252 s_2_7  + 0.240252 s_2_8  + 2000.000000 r_2_3_5 > -996.906166
t_1_6 - t_1_3 - 1000.241578 s_1_3  + 0.241578 s_1_8  > -999.543367
t_1_6 - t_2_3 - 1000.240252 s_2_3  + 0.240252 s_2_8  > -994.231214
t_2_6 - t_1_3 - 1000.241578 s_1_3  + 0.241578 s_1_8  > -999.543367
t_2_6 - t_2_3 - 1000.240252 s_2_3  + 0.240252 s_2_8  > -994.231214
s_1_3 + s_1_7 + 1000 r_1_3_7 >= 2
- s_1_3 - s_1_7 - 1000 r_1_3_7 >= -1001
t_1_3 - t_1_7 - 1000.000000 u_1_3_7 - 0.000000 s_1_7  + 2000.000000 r_1_3_7 > -999.521200
s_2_3 + s_2_7 + 1000 r_2_3_7 >= 2
- s_2_3 - s_2_7 - 1000 r_2_3_7 >= -1001
t_2_3 - t_2_7 - 1000.000000 u_2_3_7 - 0.000000 s_2_7  + 2000.000000 r_2_3_7 > -997.961800
t_1_3 - t_1_8 - 1000.000000 s_1_8  > -999.513922
t_1_3 - t_2_8 - 1000.000000 s_2_8  > -997.299778
t_2_3 - t_1_8 - 1000.000000 s_1_8  > -999.513922
t_2_3 - t_2_8 - 1000.000000 s_2_8  > -997.299778
s_1_4 + s_1_1 + 1000 r_1_1_4 >= 2
- s_1_4 - s_1_1 - 1000 r_1_1_4 >= -1001
t_1_4 - t_1_1 + 1000.000000 u_1_1_4 - 0.241578 s_1_1  + 0.241578 s_1_7  + 2000.000000 r_1_1_4 > 0.297111
s_2_4 + s_2_1 + 1000 r_2_1_4 >= 2
- s_2_4 - s_2_1 - 1000 r_2_1_4 >= -1001
t_2_4 - t_2_1 + 1000.000000 u_2_1_4 - 0.240252 s_2_1  + 0.240252 s_2_7  + 2000.000000 r_2_1_4 > 3.991692
s_1_4 + s_1_2 + 1000 r_1_2_4 >= 2
- s_1_4 - s_1_2 - 1000 r_1_2_4 >= -1001
t_1_4 - t_1_2 + 1000.000000 u_1_2_4 - 0.241578 s_1_2  + 0.241578 s_1_8  + 2000.000000 r_1_2_4 > 0.332600
s_2_4 + s_2_2 + 1000 r_2_2_4 >= 2
- s_2_4 - s_2_2 - 1000 r_2_2_4 >= -1001
t_2_4 - t_2_2 + 1000.000000 u_2_2_4 - 0.240252 s_2_2  + 0.240252 s_2_8  + 2000.000000 r_2_2_4 > 4.247589
s_1_4 + s_1_5 + 1000 r_1_4_5 >= 2
- s_1_4 - s_1_5 - 1000 r_1_4_5 >= -1001
t_1_4 - t_1_5 - 1000.000000 u_1_4_5 - 0.483156 s_1_5  + 0.241578 s_1_7  + 0.241578 s_1_8  + 2000.000000 r_1_4_5 > -999.789877
s_2_4 + s_2_5 + 1000 r_2_4_5 >= 2
- s_2_4 - s_2_5 - 1000 r_2_4_5 >= -1001
t_2_4 - t_2_5 - 1000.000000 u_2_4_5 - 0.480505 s_2_5  + 0.240252 s_2_7  + 0.240252 s_2_8  + 2000.000000 r_2_4_5 > -996.906166
t_1_6 - t_1_4 - 1000.483156 s_1_4  + 0.241578 s_1_8  + 0.241578 s_1_3  > -999.758100
t_1_6 - t_2_4 - 1000.480505 s_2_4  + 0.240252 s_2_8  + 0.240252 s_2_3  > -996.187283
t_2_6 - t_1_4 - 1000.483156 s_1_4  + 0.241578 s_1_8  + 0.241578 s_1_3  > -999.758100
t_2_6 - t_2_4 - 1000.480505 s_2_4  + 0.240252 s_2_8  + 0.240252 s_2_3  > -996.187283
s_1_4 + s_1_7 + 1000 r_1_4_7 >= 2
- s_1_4 - s_1_7 - 1000 r_1_4_7 >= -1001
t_1_4 - t_1_7 - 1000.000000 u_1_4_7 - 0.000000 s_1_7  + 2000.000000 r_1_4_7 > -999.521200
s_2_4 + s_2_7 + 1000 r_2_4_7 >= 2
- s_2_4 - s_2_7 - 1000 r_2_4_7 >= -1001
t_2_4 - t_2_7 - 1000.000000 u_2_4_7 - 0.000000 s_2_7  + 2000.000000 r_2_4_7 > -997.961800
t_1_4 - t_1_8 - 1000.000000 s_1_8  > -999.513922
t_1_4 - t_2_8 - 1000.000000 s_2_8  > -997.299778
t_2_4 - t_1_8 - 1000.000000 s_1_8  > -999.513922
t_2_4 - t_2_8 - 1000.000000 s_2_8  > -997.299778
s_1_5 + s_1_1 + 1000 r_1_1_5 >= 2
- s_1_5 - s_1_1 - 1000 r_1_1_5 >= -1001
t_1_5 - t_1_1 + 1000.000000 u_1_1_5 - 0.241578 s_1_1  + 0.241578 s_1_7  + 2000.000000 r_1_1_5 > 0.297111
s_2_5 + s_2_1 + 1000 r_2_1_5 >= 2
- s_2_5 - s_2_1 - 1000 r_2_1_5 >= -1001
t_2_5 - t_2_1 + 1000.000000 u_2_1_5 - 0.240252 s_2_1  + 0.240252 s_2_7  + 2000.000000 r_2_1_5 > 3.991692
s_1_5 + s_1_2 + 1000 r_1_2_5 >= 2
- s_1_5 - s_1_2 - 1000 r_1_2_5 >= -1001
t_1_5 - t_1_2 + 1000.000000 u_1_2_5 - 0.241578 s_1_2  + 0.241578 s_1_8  + 2000.000000 r_1_2_5 > 0.332600
s_2_5 + s_2_2 + 1000 r_2_2_5 >= 2
- s_2_5 - s_2_2 - 1000 r_2_2_5 >= -1001
t_2_5 - t_2_2 + 1000.000000 u_2_2_5 - 0.240252 s_2_2  + 0.240252 s_2_8  + 2000.000000 r_2_2_5 > 4.247589
s_1_5 + s_1_3 + 1000 r_1_3_5 >= 2
- s_1_5 - s_1_3 - 1000 r_1_3_5 >= -1001
t_1_5 - t_1_3 + 1000.000000 u_1_3_5 - 0.241578 s_1_3  + 0.241578 s_1_8  + 2000.000000 r_1_3_5 > 0.456633
s_2_5 + s_2_3 + 1000 r_2_3_5 >= 2
- s_2_5 - s_2_3 - 1000 r_2_3_5 >= -1001
t_2_5 - t_2_3 + 1000.000000 u_2_3_5 - 0.240252 s_2_3  + 0.240252 s_2_8  + 2000.000000 r_2_3_5 > 5.768786
s_1_5 + s_1_4 + 1000 r_1_4_5 >= 2
- s_1_5 - s_1_4 - 1000 r_1_4_5 >= -1001
t_1_5 - t_1_4 + 1000.000000 u_1_4_5 - 0.483156 s_1_4  + 0.241578 s_1_8  + 0.241578 s_1_3  + 2000.000000 r_1_4_5 > 0.241900
s_2_5 + s_2_4 + 1000 r_2_4_5 >= 2
- s_2_5 - s_2_4 - 1000 r_2_4_5 >= -1001
t_2_5 - t_2_4 + 1000.000000 u_2_4_5 - 0.480505 s_2_4  + 0.240252 s_2_8  + 0.240252 s_2_3  + 2000.000000 r_2_4_5 > 3.812717
t_1_6 - t_1_5 - 1000.483156 s_1_5  + 0.241578 s_1_7  + 0.241578 s_1_8  > -999.789877
t_1_6 - t_2_5 - 1000.480505 s_2_5  + 0.240252 s_2_7  + 0.240252 s_2_8  > -996.906166
t_2_6 - t_1_5 - 1000.483156 s_1_5  + 0.241578 s_1_7  + 0.241578 s_1_8  > -999.789877
t_2_6 - t_2_5 - 1000.480505 s_2_5  + 0.240252 s_2_7  + 0.240252 s_2_8  > -996.906166
t_1_5 - t_1_7 - 1000.000000 s_1_7  > -999.521200
t_1_5 - t_2_7 - 1000.000000 s_2_7  > -997.961800
t_2_5 - t_1_7 - 1000.000000 s_1_7  > -999.521200
t_2_5 - t_2_7 - 1000.000000 s_2_7  > -997.961800
t_1_5 - t_1_8 - 1000.000000 s_1_8  > -999.513922
t_1_5 - t_2_8 - 1000.000000 s_2_8  > -997.299778
t_2_5 - t_1_8 - 1000.000000 s_1_8  > -999.513922
t_2_5 - t_2_8 - 1000.000000 s_2_8  > -997.299778
s_1_7 + s_1_2 + 1000 r_1_2_7 >= 2
- s_1_7 - s_1_2 - 1000 r_1_2_7 >= -1001
t_1_7 - t_1_2 + 1000.000000 u_1_2_7 - 0.241578 s_1_2  + 0.241578 s_1_8  + 2000.000000 r_1_2_7 > 0.332600
s_2_7 + s_2_2 + 1000 r_2_2_7 >= 2
- s_2_7 - s_2_2 - 1000 r_2_2_7 >= -1001
t_2_7 - t_2_2 + 1000.000000 u_2_2_7 - 0.240252 s_2_2  + 0.240252 s_2_8  + 2000.000000 r_2_2_7 > 4.247589
s_1_7 + s_1_3 + 1000 r_1_3_7 >= 2
- s_1_7 - s_1_3 - 1000 r_1_3_7 >= -1001
t_1_7 - t_1_3 + 1000.000000 u_1_3_7 - 0.241578 s_1_3  + 0.241578 s_1_8  + 2000.000000 r_1_3_7 > 0.456633
s_2_7 + s_2_3 + 1000 r_2_3_7 >= 2
- s_2_7 - s_2_3 - 1000 r_2_3_7 >= -1001
t_2_7 - t_2_3 + 1000.000000 u_2_3_7 - 0.240252 s_2_3  + 0.240252 s_2_8  + 2000.000000 r_2_3_7 > 5.768786
s_1_7 + s_1_4 + 1000 r_1_4_7 >= 2
- s_1_7 - s_1_4 - 1000 r_1_4_7 >= -1001
t_1_7 - t_1_4 + 1000.000000 u_1_4_7 - 0.483156 s_1_4  + 0.241578 s_1_8  + 0.241578 s_1_3  + 2000.000000 r_1_4_7 > 0.241900
s_2_7 + s_2_4 + 1000 r_2_4_7 >= 2
- s_2_7 - s_2_4 - 1000 r_2_4_7 >= -1001
t_2_7 - t_2_4 + 1000.000000 u_2_4_7 - 0.480505 s_2_4  + 0.240252 s_2_8  + 0.240252 s_2_3  + 2000.000000 r_2_4_7 > 3.812717
s_1_7 + s_1_8 + 1000 r_1_7_8 >= 2
- s_1_7 - s_1_8 - 1000 r_1_7_8 >= -1001
t_1_7 - t_1_8 - 1000.000000 u_1_7_8 - 0.000000 s_1_8  + 2000.000000 r_1_7_8 > -999.513922
s_2_7 + s_2_8 + 1000 r_2_7_8 >= 2
- s_2_7 - s_2_8 - 1000 r_2_7_8 >= -1001
t_2_7 - t_2_8 - 1000.000000 u_2_7_8 - 0.000000 s_2_8  + 2000.000000 r_2_7_8 > -997.299778
s_1_8 + s_1_1 + 1000 r_1_1_8 >= 2
- s_1_8 - s_1_1 - 1000 r_1_1_8 >= -1001
t_1_8 - t_1_1 + 1000.000000 u_1_1_8 - 0.241578 s_1_1  + 0.241578 s_1_7  + 2000.000000 r_1_1_8 > 0.297111
s_2_8 + s_2_1 + 1000 r_2_1_8 >= 2
- s_2_8 - s_2_1 - 1000 r_2_1_8 >= -1001
t_2_8 - t_2_1 + 1000.000000 u_2_1_8 - 0.240252 s_2_1  + 0.240252 s_2_7  + 2000.000000 r_2_1_8 > 3.991692
s_1_8 + s_1_7 + 1000 r_1_7_8 >= 2
- s_1_8 - s_1_7 - 1000 r_1_7_8 >= -1001
t_1_8 - t_1_7 + 1000.000000 u_1_7_8 - 0.000000 s_1_7  + 2000.000000 r_1_7_8 > 0.478800
s_2_8 + s_2_7 + 1000 r_2_7_8 >= 2
- s_2_8 - s_2_7 - 1000 r_2_7_8 >= -1001
t_2_8 - t_2_7 + 1000.000000 u_2_7_8 - 0.000000 s_2_7  + 2000.000000 r_2_7_8 > 2.038200
Binary
s_1_1
s_2_1
s_1_2
s_2_2
s_1_3
s_2_3
s_1_4
s_2_4
s_1_5
s_2_5
s_1_6
s_2_6
s_1_7
s_2_7
s_1_8
s_2_8
u_1_1_2
r_1_1_2
u_2_1_2
r_2_1_2
u_1_1_3
r_1_1_3
u_2_1_3
r_2_1_3
u_1_1_4
r_1_1_4
u_2_1_4
r_2_1_4
u_1_1_5
r_1_1_5
u_2_1_5
r_2_1_5
u_1_1_8
r_1_1_8
u_2_1_8
r_2_1_8
u_1_2_3
r_1_2_3
u_2_2_3
r_2_2_3
u_1_2_4
r_1_2_4
u_2_2_4
r_2_2_4
u_1_2_5
r_1_2_5
u_2_2_5
r_2_2_5
u_1_2_7
r_1_2_7
u_2_2_7
r_2_2_7
u_1_3_5
r_1_3_5
u_2_3_5
r_2_3_5
u_1_3_7
r_1_3_7
u_2_3_7
r_2_3_7
u_1_4_5
r_1_4_5
u_2_4_5
r_2_4_5
u_1_4_7
r_1_4_7
u_2_4_7
r_2_4_7
u_1_7_8
r_1_7_8
u_2_7_8
r_2_7_8

End
